; benchmark generated from python API
(set-info :status unknown)
(declare-fun cell_1_8 () Int)
(declare-fun cell_1_9 () Int)
(declare-fun cell_2_2 () Int)
(declare-fun cell_2_5 () Int)
(declare-fun cell_3_1 () Int)
(declare-fun cell_3_4 () Int)
(declare-fun cell_4_2 () Int)
(declare-fun cell_4_9 () Int)
(declare-fun cell_5_1 () Int)
(declare-fun cell_6_6 () Int)
(declare-fun cell_7_7 () Int)
(declare-fun cell_8_5 () Int)
(declare-fun cell_9_3 () Int)
(declare-fun cell_1_1 () Int)
(declare-fun cell_2_1 () Int)
(declare-fun cell_4_1 () Int)
(declare-fun cell_6_1 () Int)
(declare-fun cell_7_1 () Int)
(declare-fun cell_8_1 () Int)
(declare-fun cell_9_1 () Int)
(declare-fun cell_1_2 () Int)
(declare-fun cell_3_2 () Int)
(declare-fun cell_5_2 () Int)
(declare-fun cell_6_2 () Int)
(declare-fun cell_7_2 () Int)
(declare-fun cell_8_2 () Int)
(declare-fun cell_9_2 () Int)
(declare-fun cell_1_3 () Int)
(declare-fun cell_2_3 () Int)
(declare-fun cell_3_3 () Int)
(declare-fun cell_4_3 () Int)
(declare-fun cell_5_3 () Int)
(declare-fun cell_6_3 () Int)
(declare-fun cell_7_3 () Int)
(declare-fun cell_8_3 () Int)
(declare-fun cell_1_4 () Int)
(declare-fun cell_2_4 () Int)
(declare-fun cell_4_4 () Int)
(declare-fun cell_5_4 () Int)
(declare-fun cell_6_4 () Int)
(declare-fun cell_7_4 () Int)
(declare-fun cell_8_4 () Int)
(declare-fun cell_9_4 () Int)
(declare-fun cell_1_5 () Int)
(declare-fun cell_3_5 () Int)
(declare-fun cell_4_5 () Int)
(declare-fun cell_5_5 () Int)
(declare-fun cell_6_5 () Int)
(declare-fun cell_7_5 () Int)
(declare-fun cell_9_5 () Int)
(declare-fun cell_1_6 () Int)
(declare-fun cell_2_6 () Int)
(declare-fun cell_3_6 () Int)
(declare-fun cell_4_6 () Int)
(declare-fun cell_5_6 () Int)
(declare-fun cell_7_6 () Int)
(declare-fun cell_8_6 () Int)
(declare-fun cell_9_6 () Int)
(declare-fun cell_1_7 () Int)
(declare-fun cell_2_7 () Int)
(declare-fun cell_3_7 () Int)
(declare-fun cell_4_7 () Int)
(declare-fun cell_5_7 () Int)
(declare-fun cell_6_7 () Int)
(declare-fun cell_8_7 () Int)
(declare-fun cell_9_7 () Int)
(declare-fun cell_2_8 () Int)
(declare-fun cell_3_8 () Int)
(declare-fun cell_4_8 () Int)
(declare-fun cell_5_8 () Int)
(declare-fun cell_6_8 () Int)
(declare-fun cell_7_8 () Int)
(declare-fun cell_8_8 () Int)
(declare-fun cell_9_8 () Int)
(declare-fun cell_2_9 () Int)
(declare-fun cell_3_9 () Int)
(declare-fun cell_5_9 () Int)
(declare-fun cell_6_9 () Int)
(declare-fun cell_7_9 () Int)
(declare-fun cell_8_9 () Int)
(declare-fun cell_9_9 () Int)
(assert
 (= cell_1_8 1))
(assert
 (= cell_1_9 2))
(assert
 (= cell_2_2 1))
(assert
 (= cell_2_5 2))
(assert
 (= cell_3_1 2))
(assert
 (= cell_3_4 1))
(assert
 (= cell_4_2 2))
(assert
 (= cell_4_9 1))
(assert
 (= cell_5_1 1))
(assert
 (= cell_6_6 1))
(assert
 (= cell_7_7 1))
(assert
 (= cell_8_5 1))
(assert
 (= cell_9_3 1))
(assert
 (let (($x1992 (= cell_1_1 9)))
 (let (($x39 (= cell_1_1 8)))
 (let (($x999 (= cell_1_1 7)))
 (let (($x345 (= cell_1_1 6)))
 (let (($x1613 (= cell_1_1 5)))
 (let (($x2313 (= cell_1_1 4)))
 (let (($x2765 (= cell_1_1 3)))
 (let (($x3304 (= cell_1_1 2)))
 (let (($x4103 (= cell_1_1 1)))
 (or $x4103 $x3304 $x2765 $x2313 $x1613 $x345 $x999 $x39 $x1992)))))))))))
(assert
 (let (($x3242 (= cell_2_1 9)))
 (let (($x2809 (= cell_2_1 8)))
 (let (($x917 (= cell_2_1 7)))
 (let (($x3063 (= cell_2_1 6)))
 (let (($x2587 (= cell_2_1 5)))
 (let (($x3334 (= cell_2_1 4)))
 (let (($x2851 (= cell_2_1 3)))
 (let (($x2149 (= cell_2_1 2)))
 (let (($x2791 (= cell_2_1 1)))
 (or $x2791 $x2149 $x2851 $x3334 $x2587 $x3063 $x917 $x2809 $x3242)))))))))))
(assert
 (let (($x3250 (= cell_3_1 2)))
 (or (= cell_3_1 1) $x3250 (= cell_3_1 3) (= cell_3_1 4) (= cell_3_1 5) (= cell_3_1 6) (= cell_3_1 7) (= cell_3_1 8) (= cell_3_1 9))))
(assert
 (let (($x1552 (= cell_4_1 9)))
 (let (($x2134 (= cell_4_1 8)))
 (let (($x2819 (= cell_4_1 7)))
 (let (($x2207 (= cell_4_1 6)))
 (let (($x145 (= cell_4_1 5)))
 (let (($x1496 (= cell_4_1 4)))
 (let (($x2070 (= cell_4_1 3)))
 (let (($x2020 (= cell_4_1 2)))
 (let (($x2263 (= cell_4_1 1)))
 (or $x2263 $x2020 $x2070 $x1496 $x145 $x2207 $x2819 $x2134 $x1552)))))))))))
(assert
 (let (($x2974 (= cell_5_1 1)))
 (or $x2974 (= cell_5_1 2) (= cell_5_1 3) (= cell_5_1 4) (= cell_5_1 5) (= cell_5_1 6) (= cell_5_1 7) (= cell_5_1 8) (= cell_5_1 9))))
(assert
 (let (($x2085 (= cell_6_1 9)))
 (let (($x3138 (= cell_6_1 8)))
 (let (($x708 (= cell_6_1 7)))
 (let (($x2689 (= cell_6_1 6)))
 (let (($x2104 (= cell_6_1 5)))
 (let (($x234 (= cell_6_1 4)))
 (let (($x199 (= cell_6_1 3)))
 (let (($x1122 (= cell_6_1 2)))
 (let (($x1165 (= cell_6_1 1)))
 (or $x1165 $x1122 $x199 $x234 $x2104 $x2689 $x708 $x3138 $x2085)))))))))))
(assert
 (let (($x1824 (= cell_7_1 9)))
 (let (($x2783 (= cell_7_1 8)))
 (let (($x2241 (= cell_7_1 7)))
 (let (($x2648 (= cell_7_1 6)))
 (let (($x1470 (= cell_7_1 5)))
 (let (($x60 (= cell_7_1 4)))
 (let (($x1711 (= cell_7_1 3)))
 (let (($x1457 (= cell_7_1 2)))
 (let (($x3176 (= cell_7_1 1)))
 (or $x3176 $x1457 $x1711 $x60 $x1470 $x2648 $x2241 $x2783 $x1824)))))))))))
(assert
 (let (($x1203 (= cell_8_1 9)))
 (let (($x2835 (= cell_8_1 8)))
 (let (($x2212 (= cell_8_1 7)))
 (let (($x1586 (= cell_8_1 6)))
 (let (($x1262 (= cell_8_1 5)))
 (let (($x1273 (= cell_8_1 4)))
 (let (($x2307 (= cell_8_1 3)))
 (let (($x2086 (= cell_8_1 2)))
 (let (($x2359 (= cell_8_1 1)))
 (or $x2359 $x2086 $x2307 $x1273 $x1262 $x1586 $x2212 $x2835 $x1203)))))))))))
(assert
 (let (($x55 (= cell_9_1 9)))
 (let (($x1017 (= cell_9_1 8)))
 (let (($x2895 (= cell_9_1 7)))
 (let (($x1424 (= cell_9_1 6)))
 (let (($x3220 (= cell_9_1 5)))
 (let (($x260 (= cell_9_1 4)))
 (let (($x2889 (= cell_9_1 3)))
 (let (($x2896 (= cell_9_1 2)))
 (let (($x526 (= cell_9_1 1)))
 (or $x526 $x2896 $x2889 $x260 $x3220 $x1424 $x2895 $x1017 $x55)))))))))))
(assert
 (let (($x2256 (= cell_1_2 9)))
 (let (($x2083 (= cell_1_2 8)))
 (let (($x153 (= cell_1_2 7)))
 (let (($x2006 (= cell_1_2 6)))
 (let (($x1027 (= cell_1_2 5)))
 (let (($x948 (= cell_1_2 4)))
 (let (($x1993 (= cell_1_2 3)))
 (let (($x1170 (= cell_1_2 2)))
 (let (($x2934 (= cell_1_2 1)))
 (or $x2934 $x1170 $x1993 $x948 $x1027 $x2006 $x153 $x2083 $x2256)))))))))))
(assert
 (let (($x1638 (= cell_2_2 1)))
 (or $x1638 (= cell_2_2 2) (= cell_2_2 3) (= cell_2_2 4) (= cell_2_2 5) (= cell_2_2 6) (= cell_2_2 7) (= cell_2_2 8) (= cell_2_2 9))))
(assert
 (let (($x1359 (= cell_3_2 9)))
 (let (($x754 (= cell_3_2 8)))
 (let (($x1780 (= cell_3_2 7)))
 (let (($x2848 (= cell_3_2 6)))
 (let (($x1659 (= cell_3_2 5)))
 (let (($x1855 (= cell_3_2 4)))
 (let (($x2913 (= cell_3_2 3)))
 (let (($x2390 (= cell_3_2 2)))
 (let (($x171 (= cell_3_2 1)))
 (or $x171 $x2390 $x2913 $x1855 $x1659 $x2848 $x1780 $x754 $x1359)))))))))))
(assert
 (let (($x1188 (= cell_4_2 2)))
 (or (= cell_4_2 1) $x1188 (= cell_4_2 3) (= cell_4_2 4) (= cell_4_2 5) (= cell_4_2 6) (= cell_4_2 7) (= cell_4_2 8) (= cell_4_2 9))))
(assert
 (let (($x537 (= cell_5_2 2)))
 (let (($x849 (= cell_5_2 1)))
 (or $x849 $x537 (= cell_5_2 3) (= cell_5_2 4) (= cell_5_2 5) (= cell_5_2 6) (= cell_5_2 7) (= cell_5_2 8) (= cell_5_2 9)))))
(assert
 (let (($x1418 (= cell_6_2 9)))
 (let (($x1851 (= cell_6_2 8)))
 (let (($x2861 (= cell_6_2 7)))
 (let (($x1317 (= cell_6_2 6)))
 (let (($x2138 (= cell_6_2 5)))
 (let (($x276 (= cell_6_2 4)))
 (let (($x1580 (= cell_6_2 3)))
 (let (($x112 (= cell_6_2 2)))
 (let (($x1206 (= cell_6_2 1)))
 (or $x1206 $x112 $x1580 $x276 $x2138 $x1317 $x2861 $x1851 $x1418)))))))))))
(assert
 (let (($x2311 (= cell_7_2 9)))
 (let (($x3282 (= cell_7_2 8)))
 (let (($x2852 (= cell_7_2 7)))
 (let (($x4400 (= cell_7_2 6)))
 (let (($x69 (= cell_7_2 5)))
 (let (($x454 (= cell_7_2 4)))
 (let (($x2270 (= cell_7_2 3)))
 (let (($x441 (= cell_7_2 2)))
 (let (($x1020 (= cell_7_2 1)))
 (or $x1020 $x441 $x2270 $x454 $x69 $x4400 $x2852 $x3282 $x2311)))))))))))
(assert
 (let (($x1595 (= cell_8_2 9)))
 (let (($x7588 (= cell_8_2 8)))
 (let (($x1145 (= cell_8_2 7)))
 (let (($x3154 (= cell_8_2 6)))
 (let (($x410 (= cell_8_2 5)))
 (let (($x1773 (= cell_8_2 4)))
 (let (($x3188 (= cell_8_2 3)))
 (let (($x1146 (= cell_8_2 2)))
 (let (($x881 (= cell_8_2 1)))
 (or $x881 $x1146 $x3188 $x1773 $x410 $x3154 $x1145 $x7588 $x1595)))))))))))
(assert
 (let (($x1195 (= cell_9_2 9)))
 (let (($x1132 (= cell_9_2 8)))
 (let (($x1515 (= cell_9_2 7)))
 (let (($x928 (= cell_9_2 6)))
 (let (($x104 (= cell_9_2 5)))
 (let (($x2180 (= cell_9_2 4)))
 (let (($x1429 (= cell_9_2 3)))
 (let (($x2864 (= cell_9_2 2)))
 (let (($x1994 (= cell_9_2 1)))
 (or $x1994 $x2864 $x1429 $x2180 $x104 $x928 $x1515 $x1132 $x1195)))))))))))
(assert
 (let (($x2887 (= cell_1_3 9)))
 (let (($x909 (= cell_1_3 8)))
 (let (($x3390 (= cell_1_3 7)))
 (let (($x1604 (= cell_1_3 6)))
 (let (($x1420 (= cell_1_3 5)))
 (let (($x1831 (= cell_1_3 4)))
 (let (($x2441 (= cell_1_3 3)))
 (let (($x1535 (= cell_1_3 2)))
 (let (($x2877 (= cell_1_3 1)))
 (or $x2877 $x1535 $x2441 $x1831 $x1420 $x1604 $x3390 $x909 $x2887)))))))))))
(assert
 (let (($x4465 (= cell_2_3 9)))
 (let (($x368 (= cell_2_3 8)))
 (let (($x1430 (= cell_2_3 7)))
 (let (($x3268 (= cell_2_3 6)))
 (let (($x2568 (= cell_2_3 5)))
 (let (($x3084 (= cell_2_3 4)))
 (let (($x1322 (= cell_2_3 3)))
 (let (($x1949 (= cell_2_3 2)))
 (let (($x3178 (= cell_2_3 1)))
 (or $x3178 $x1949 $x1322 $x3084 $x2568 $x3268 $x1430 $x368 $x4465)))))))))))
(assert
 (let (($x3065 (= cell_3_3 9)))
 (let (($x2696 (= cell_3_3 8)))
 (let (($x1615 (= cell_3_3 7)))
 (let (($x2315 (= cell_3_3 6)))
 (let (($x1374 (= cell_3_3 5)))
 (let (($x1077 (= cell_3_3 4)))
 (let (($x3327 (= cell_3_3 3)))
 (let (($x1632 (= cell_3_3 2)))
 (let (($x2234 (= cell_3_3 1)))
 (or $x2234 $x1632 $x3327 $x1077 $x1374 $x2315 $x1615 $x2696 $x3065)))))))))))
(assert
 (let (($x1245 (= cell_4_3 9)))
 (let (($x2977 (= cell_4_3 8)))
 (let (($x2094 (= cell_4_3 7)))
 (let (($x1640 (= cell_4_3 6)))
 (let (($x2630 (= cell_4_3 5)))
 (let (($x530 (= cell_4_3 4)))
 (let (($x6499 (= cell_4_3 3)))
 (let (($x520 (= cell_4_3 2)))
 (let (($x2601 (= cell_4_3 1)))
 (or $x2601 $x520 $x6499 $x530 $x2630 $x1640 $x2094 $x2977 $x1245)))))))))))
(assert
 (let (($x3295 (= cell_5_3 9)))
 (let (($x1494 (= cell_5_3 8)))
 (let (($x2795 (= cell_5_3 7)))
 (let (($x2237 (= cell_5_3 6)))
 (let (($x564 (= cell_5_3 5)))
 (let (($x2596 (= cell_5_3 4)))
 (let (($x1982 (= cell_5_3 3)))
 (let (($x494 (= cell_5_3 2)))
 (let (($x425 (= cell_5_3 1)))
 (or $x425 $x494 $x1982 $x2596 $x564 $x2237 $x2795 $x1494 $x3295)))))))))))
(assert
 (let (($x95 (= cell_6_3 9)))
 (let (($x1140 (= cell_6_3 8)))
 (let (($x757 (= cell_6_3 7)))
 (let (($x2758 (= cell_6_3 6)))
 (let (($x2672 (= cell_6_3 5)))
 (let (($x1828 (= cell_6_3 4)))
 (let (($x336 (= cell_6_3 3)))
 (let (($x1886 (= cell_6_3 2)))
 (let (($x1181 (= cell_6_3 1)))
 (or $x1181 $x1886 $x336 $x1828 $x2672 $x2758 $x757 $x1140 $x95)))))))))))
(assert
 (let (($x2413 (= cell_7_3 9)))
 (let (($x2761 (= cell_7_3 8)))
 (let (($x2504 (= cell_7_3 7)))
 (let (($x1752 (= cell_7_3 6)))
 (let (($x2396 (= cell_7_3 5)))
 (let (($x1902 (= cell_7_3 4)))
 (let (($x329 (= cell_7_3 3)))
 (let (($x1038 (= cell_7_3 2)))
 (let (($x2965 (= cell_7_3 1)))
 (or $x2965 $x1038 $x329 $x1902 $x2396 $x1752 $x2504 $x2761 $x2413)))))))))))
(assert
 (let (($x975 (= cell_8_3 9)))
 (let (($x1161 (= cell_8_3 8)))
 (let (($x97 (= cell_8_3 7)))
 (let (($x784 (= cell_8_3 6)))
 (let (($x2136 (= cell_8_3 5)))
 (let (($x778 (= cell_8_3 4)))
 (let (($x307 (= cell_8_3 3)))
 (let (($x535 (= cell_8_3 2)))
 (let (($x2077 (= cell_8_3 1)))
 (or $x2077 $x535 $x307 $x778 $x2136 $x784 $x97 $x1161 $x975)))))))))))
(assert
 (let (($x1518 (= cell_9_3 1)))
 (or $x1518 (= cell_9_3 2) (= cell_9_3 3) (= cell_9_3 4) (= cell_9_3 5) (= cell_9_3 6) (= cell_9_3 7) (= cell_9_3 8) (= cell_9_3 9))))
(assert
 (let (($x3396 (= cell_1_4 9)))
 (let (($x82 (= cell_1_4 8)))
 (let (($x1310 (= cell_1_4 7)))
 (let (($x2404 (= cell_1_4 6)))
 (let (($x422 (= cell_1_4 5)))
 (let (($x1169 (= cell_1_4 4)))
 (let (($x1108 (= cell_1_4 3)))
 (let (($x1464 (= cell_1_4 2)))
 (let (($x4467 (= cell_1_4 1)))
 (or $x4467 $x1464 $x1108 $x1169 $x422 $x2404 $x1310 $x82 $x3396)))))))))))
(assert
 (let (($x1756 (= cell_2_4 9)))
 (let (($x547 (= cell_2_4 8)))
 (let (($x1555 (= cell_2_4 7)))
 (let (($x800 (= cell_2_4 6)))
 (let (($x816 (= cell_2_4 5)))
 (let (($x159 (= cell_2_4 4)))
 (let (($x472 (= cell_2_4 3)))
 (let (($x3106 (= cell_2_4 2)))
 (let (($x1437 (= cell_2_4 1)))
 (or $x1437 $x3106 $x472 $x159 $x816 $x800 $x1555 $x547 $x1756)))))))))))
(assert
 (let (($x419 (= cell_3_4 1)))
 (or $x419 (= cell_3_4 2) (= cell_3_4 3) (= cell_3_4 4) (= cell_3_4 5) (= cell_3_4 6) (= cell_3_4 7) (= cell_3_4 8) (= cell_3_4 9))))
(assert
 (let (($x160 (= cell_4_4 9)))
 (let (($x2541 (= cell_4_4 8)))
 (let (($x2713 (= cell_4_4 7)))
 (let (($x3014 (= cell_4_4 6)))
 (let (($x793 (= cell_4_4 5)))
 (let (($x3182 (= cell_4_4 4)))
 (let (($x3228 (= cell_4_4 3)))
 (let (($x394 (= cell_4_4 2)))
 (let (($x3392 (= cell_4_4 1)))
 (or $x3392 $x394 $x3228 $x3182 $x793 $x3014 $x2713 $x2541 $x160)))))))))))
(assert
 (let (($x1159 (= cell_5_4 9)))
 (let (($x1375 (= cell_5_4 8)))
 (let (($x1950 (= cell_5_4 7)))
 (let (($x984 (= cell_5_4 6)))
 (let (($x1069 (= cell_5_4 5)))
 (let (($x58 (= cell_5_4 4)))
 (let (($x349 (= cell_5_4 3)))
 (let (($x2054 (= cell_5_4 2)))
 (let (($x2883 (= cell_5_4 1)))
 (or $x2883 $x2054 $x349 $x58 $x1069 $x984 $x1950 $x1375 $x1159)))))))))))
(assert
 (let (($x476 (= cell_6_4 9)))
 (let (($x1425 (= cell_6_4 8)))
 (let (($x1825 (= cell_6_4 7)))
 (let (($x1476 (= cell_6_4 6)))
 (let (($x151 (= cell_6_4 5)))
 (let (($x1639 (= cell_6_4 4)))
 (let (($x2428 (= cell_6_4 3)))
 (let (($x2377 (= cell_6_4 2)))
 (let (($x3161 (= cell_6_4 1)))
 (or $x3161 $x2377 $x2428 $x1639 $x151 $x1476 $x1825 $x1425 $x476)))))))))))
(assert
 (let (($x1918 (= cell_7_4 9)))
 (let (($x327 (= cell_7_4 8)))
 (let (($x611 (= cell_7_4 7)))
 (let (($x514 (= cell_7_4 6)))
 (let (($x2635 (= cell_7_4 5)))
 (let (($x965 (= cell_7_4 4)))
 (let (($x1256 (= cell_7_4 3)))
 (let (($x1723 (= cell_7_4 2)))
 (let (($x985 (= cell_7_4 1)))
 (or $x985 $x1723 $x1256 $x965 $x2635 $x514 $x611 $x327 $x1918)))))))))))
(assert
 (let (($x3419 (= cell_8_4 9)))
 (let (($x2733 (= cell_8_4 8)))
 (let (($x3197 (= cell_8_4 7)))
 (let (($x2047 (= cell_8_4 6)))
 (let (($x1196 (= cell_8_4 5)))
 (let (($x934 (= cell_8_4 4)))
 (let (($x2810 (= cell_8_4 3)))
 (let (($x1797 (= cell_8_4 2)))
 (let (($x267 (= cell_8_4 1)))
 (or $x267 $x1797 $x2810 $x934 $x1196 $x2047 $x3197 $x2733 $x3419)))))))))))
(assert
 (let (($x3314 (= cell_9_4 1)))
 (or $x3314 (= cell_9_4 2) (= cell_9_4 3) (= cell_9_4 4) (= cell_9_4 5) (= cell_9_4 6) (= cell_9_4 7) (= cell_9_4 8) (= cell_9_4 9))))
(assert
 (let (($x1022 (= cell_1_5 9)))
 (let (($x266 (= cell_1_5 8)))
 (let (($x1179 (= cell_1_5 7)))
 (let (($x1205 (= cell_1_5 6)))
 (let (($x542 (= cell_1_5 5)))
 (let (($x679 (= cell_1_5 4)))
 (let (($x723 (= cell_1_5 3)))
 (let (($x2904 (= cell_1_5 2)))
 (let (($x195 (= cell_1_5 1)))
 (or $x195 $x2904 $x723 $x679 $x542 $x1205 $x1179 $x266 $x1022)))))))))))
(assert
 (let (($x1564 (= cell_2_5 2)))
 (or (= cell_2_5 1) $x1564 (= cell_2_5 3) (= cell_2_5 4) (= cell_2_5 5) (= cell_2_5 6) (= cell_2_5 7) (= cell_2_5 8) (= cell_2_5 9))))
(assert
 (let (($x288 (= cell_3_5 9)))
 (let (($x3259 (= cell_3_5 8)))
 (let (($x325 (= cell_3_5 7)))
 (let (($x2481 (= cell_3_5 6)))
 (let (($x1349 (= cell_3_5 5)))
 (let (($x2863 (= cell_3_5 4)))
 (let (($x2512 (= cell_3_5 3)))
 (let (($x1818 (= cell_3_5 2)))
 (let (($x346 (= cell_3_5 1)))
 (or $x346 $x1818 $x2512 $x2863 $x1349 $x2481 $x325 $x3259 $x288)))))))))))
(assert
 (let (($x3165 (= cell_4_5 9)))
 (let (($x2567 (= cell_4_5 8)))
 (let (($x1018 (= cell_4_5 7)))
 (let (($x3252 (= cell_4_5 6)))
 (let (($x1568 (= cell_4_5 5)))
 (let (($x742 (= cell_4_5 4)))
 (let (($x915 (= cell_4_5 3)))
 (let (($x1168 (= cell_4_5 2)))
 (let (($x1835 (= cell_4_5 1)))
 (or $x1835 $x1168 $x915 $x742 $x1568 $x3252 $x1018 $x2567 $x3165)))))))))))
(assert
 (let (($x944 (= cell_5_5 9)))
 (let (($x837 (= cell_5_5 8)))
 (let (($x594 (= cell_5_5 7)))
 (let (($x2296 (= cell_5_5 6)))
 (let (($x2691 (= cell_5_5 5)))
 (let (($x458 (= cell_5_5 4)))
 (let (($x1641 (= cell_5_5 3)))
 (let (($x2999 (= cell_5_5 2)))
 (let (($x2343 (= cell_5_5 1)))
 (or $x2343 $x2999 $x1641 $x458 $x2691 $x2296 $x594 $x837 $x944)))))))))))
(assert
 (let (($x2495 (= cell_6_5 9)))
 (let (($x2137 (= cell_6_5 8)))
 (let (($x2576 (= cell_6_5 7)))
 (let (($x2698 (= cell_6_5 6)))
 (let (($x2353 (= cell_6_5 5)))
 (let (($x845 (= cell_6_5 4)))
 (let (($x1187 (= cell_6_5 3)))
 (let (($x1355 (= cell_6_5 2)))
 (let (($x1370 (= cell_6_5 1)))
 (or $x1370 $x1355 $x1187 $x845 $x2353 $x2698 $x2576 $x2137 $x2495)))))))))))
(assert
 (let (($x1127 (= cell_7_5 9)))
 (let (($x3344 (= cell_7_5 8)))
 (let (($x1438 (= cell_7_5 7)))
 (let (($x3059 (= cell_7_5 6)))
 (let (($x1504 (= cell_7_5 5)))
 (let (($x3254 (= cell_7_5 4)))
 (let (($x1725 (= cell_7_5 3)))
 (let (($x3045 (= cell_7_5 2)))
 (let (($x2990 (= cell_7_5 1)))
 (or $x2990 $x3045 $x1725 $x3254 $x1504 $x3059 $x1438 $x3344 $x1127)))))))))))
(assert
 (let (($x3143 (= cell_8_5 1)))
 (or $x3143 (= cell_8_5 2) (= cell_8_5 3) (= cell_8_5 4) (= cell_8_5 5) (= cell_8_5 6) (= cell_8_5 7) (= cell_8_5 8) (= cell_8_5 9))))
(assert
 (let (($x358 (= cell_9_5 2)))
 (let (($x1970 (= cell_9_5 1)))
 (or $x1970 $x358 (= cell_9_5 3) (= cell_9_5 4) (= cell_9_5 5) (= cell_9_5 6) (= cell_9_5 7) (= cell_9_5 8) (= cell_9_5 9)))))
(assert
 (let (($x2955 (= cell_1_6 9)))
 (let (($x976 (= cell_1_6 8)))
 (let (($x14 (= cell_1_6 7)))
 (let (($x2986 (= cell_1_6 6)))
 (let (($x478 (= cell_1_6 5)))
 (let (($x2116 (= cell_1_6 4)))
 (let (($x207 (= cell_1_6 3)))
 (let (($x1654 (= cell_1_6 2)))
 (let (($x2084 (= cell_1_6 1)))
 (or $x2084 $x1654 $x207 $x2116 $x478 $x2986 $x14 $x976 $x2955)))))))))))
(assert
 (let (($x750 (= cell_2_6 9)))
 (let (($x2963 (= cell_2_6 8)))
 (let (($x2526 (= cell_2_6 7)))
 (let (($x225 (= cell_2_6 6)))
 (let (($x121 (= cell_2_6 5)))
 (let (($x1453 (= cell_2_6 4)))
 (let (($x2217 (= cell_2_6 3)))
 (let (($x920 (= cell_2_6 2)))
 (let (($x1444 (= cell_2_6 1)))
 (or $x1444 $x920 $x2217 $x1453 $x121 $x225 $x2526 $x2963 $x750)))))))))))
(assert
 (let (($x1559 (= cell_3_6 9)))
 (let (($x996 (= cell_3_6 8)))
 (let (($x455 (= cell_3_6 7)))
 (let (($x3174 (= cell_3_6 6)))
 (let (($x1312 (= cell_3_6 5)))
 (let (($x2789 (= cell_3_6 4)))
 (let (($x3303 (= cell_3_6 3)))
 (let (($x3335 (= cell_3_6 2)))
 (let (($x1050 (= cell_3_6 1)))
 (or $x1050 $x3335 $x3303 $x2789 $x1312 $x3174 $x455 $x996 $x1559)))))))))))
(assert
 (let (($x3114 (= cell_4_6 9)))
 (let (($x1171 (= cell_4_6 8)))
 (let (($x740 (= cell_4_6 7)))
 (let (($x485 (= cell_4_6 6)))
 (let (($x1155 (= cell_4_6 5)))
 (let (($x3350 (= cell_4_6 4)))
 (let (($x2405 (= cell_4_6 3)))
 (let (($x2239 (= cell_4_6 2)))
 (let (($x3368 (= cell_4_6 1)))
 (or $x3368 $x2239 $x2405 $x3350 $x1155 $x485 $x740 $x1171 $x3114)))))))))))
(assert
 (let (($x1929 (= cell_5_6 9)))
 (let (($x946 (= cell_5_6 8)))
 (let (($x1936 (= cell_5_6 7)))
 (let (($x3222 (= cell_5_6 6)))
 (let (($x205 (= cell_5_6 5)))
 (let (($x2108 (= cell_5_6 4)))
 (let (($x579 (= cell_5_6 3)))
 (let (($x527 (= cell_5_6 2)))
 (let (($x1047 (= cell_5_6 1)))
 (or $x1047 $x527 $x579 $x2108 $x205 $x3222 $x1936 $x946 $x1929)))))))))))
(assert
 (let (($x2950 (= cell_6_6 1)))
 (or $x2950 (= cell_6_6 2) (= cell_6_6 3) (= cell_6_6 4) (= cell_6_6 5) (= cell_6_6 6) (= cell_6_6 7) (= cell_6_6 8) (= cell_6_6 9))))
(assert
 (let (($x765 (= cell_7_6 9)))
 (let (($x1808 (= cell_7_6 8)))
 (let (($x3393 (= cell_7_6 7)))
 (let (($x2627 (= cell_7_6 6)))
 (let (($x2998 (= cell_7_6 5)))
 (let (($x1303 (= cell_7_6 4)))
 (let (($x801 (= cell_7_6 3)))
 (let (($x1066 (= cell_7_6 2)))
 (let (($x2870 (= cell_7_6 1)))
 (or $x2870 $x1066 $x801 $x1303 $x2998 $x2627 $x3393 $x1808 $x765)))))))))))
(assert
 (let (($x315 (= cell_8_6 1)))
 (or $x315 (= cell_8_6 2) (= cell_8_6 3) (= cell_8_6 4) (= cell_8_6 5) (= cell_8_6 6) (= cell_8_6 7) (= cell_8_6 8) (= cell_8_6 9))))
(assert
 (let (($x1810 (= cell_9_6 1)))
 (or $x1810 (= cell_9_6 2) (= cell_9_6 3) (= cell_9_6 4) (= cell_9_6 5) (= cell_9_6 6) (= cell_9_6 7) (= cell_9_6 8) (= cell_9_6 9))))
(assert
 (let (($x3203 (= cell_1_7 9)))
 (let (($x2024 (= cell_1_7 8)))
 (let (($x1730 (= cell_1_7 7)))
 (let (($x696 (= cell_1_7 6)))
 (let (($x2910 (= cell_1_7 5)))
 (let (($x1076 (= cell_1_7 4)))
 (let (($x532 (= cell_1_7 3)))
 (let (($x2964 (= cell_1_7 2)))
 (let (($x2515 (= cell_1_7 1)))
 (or $x2515 $x2964 $x532 $x1076 $x2910 $x696 $x1730 $x2024 $x3203)))))))))))
(assert
 (let (($x1227 (= cell_2_7 9)))
 (let (($x1286 (= cell_2_7 8)))
 (let (($x1792 (= cell_2_7 7)))
 (let (($x411 (= cell_2_7 6)))
 (let (($x620 (= cell_2_7 5)))
 (let (($x310 (= cell_2_7 4)))
 (let (($x559 (= cell_2_7 3)))
 (let (($x2446 (= cell_2_7 2)))
 (let (($x1281 (= cell_2_7 1)))
 (or $x1281 $x2446 $x559 $x310 $x620 $x411 $x1792 $x1286 $x1227)))))))))))
(assert
 (let (($x645 (= cell_3_7 9)))
 (let (($x2040 (= cell_3_7 8)))
 (let (($x1183 (= cell_3_7 7)))
 (let (($x1084 (= cell_3_7 6)))
 (let (($x516 (= cell_3_7 5)))
 (let (($x925 (= cell_3_7 4)))
 (let (($x597 (= cell_3_7 3)))
 (let (($x885 (= cell_3_7 2)))
 (let (($x2527 (= cell_3_7 1)))
 (or $x2527 $x885 $x597 $x925 $x516 $x1084 $x1183 $x2040 $x645)))))))))))
(assert
 (let (($x3047 (= cell_4_7 9)))
 (let (($x3420 (= cell_4_7 8)))
 (let (($x8125 (= cell_4_7 7)))
 (let (($x1691 (= cell_4_7 6)))
 (let (($x1278 (= cell_4_7 5)))
 (let (($x1493 (= cell_4_7 4)))
 (let (($x135 (= cell_4_7 3)))
 (let (($x2433 (= cell_4_7 2)))
 (let (($x782 (= cell_4_7 1)))
 (or $x782 $x2433 $x135 $x1493 $x1278 $x1691 $x8125 $x3420 $x3047)))))))))))
(assert
 (let (($x1044 (= cell_5_7 9)))
 (let (($x655 (= cell_5_7 8)))
 (let (($x2373 (= cell_5_7 7)))
 (let (($x2752 (= cell_5_7 6)))
 (let (($x2543 (= cell_5_7 5)))
 (let (($x1015 (= cell_5_7 4)))
 (let (($x2265 (= cell_5_7 3)))
 (let (($x1814 (= cell_5_7 2)))
 (let (($x23 (= cell_5_7 1)))
 (or $x23 $x1814 $x2265 $x1015 $x2543 $x2752 $x2373 $x655 $x1044)))))))))))
(assert
 (let (($x3404 (= cell_6_7 9)))
 (let (($x3141 (= cell_6_7 8)))
 (let (($x1172 (= cell_6_7 7)))
 (let (($x324 (= cell_6_7 6)))
 (let (($x966 (= cell_6_7 5)))
 (let (($x424 (= cell_6_7 4)))
 (let (($x504 (= cell_6_7 3)))
 (let (($x863 (= cell_6_7 2)))
 (let (($x2442 (= cell_6_7 1)))
 (or $x2442 $x863 $x504 $x424 $x966 $x324 $x1172 $x3141 $x3404)))))))))))
(assert
 (let (($x599 (= cell_7_7 1)))
 (or $x599 (= cell_7_7 2) (= cell_7_7 3) (= cell_7_7 4) (= cell_7_7 5) (= cell_7_7 6) (= cell_7_7 7) (= cell_7_7 8) (= cell_7_7 9))))
(assert
 (let (($x3005 (= cell_8_7 1)))
 (or $x3005 (= cell_8_7 2) (= cell_8_7 3) (= cell_8_7 4) (= cell_8_7 5) (= cell_8_7 6) (= cell_8_7 7) (= cell_8_7 8) (= cell_8_7 9))))
(assert
 (let (($x1202 (= cell_9_7 1)))
 (or $x1202 (= cell_9_7 2) (= cell_9_7 3) (= cell_9_7 4) (= cell_9_7 5) (= cell_9_7 6) (= cell_9_7 7) (= cell_9_7 8) (= cell_9_7 9))))
(assert
 (let (($x140 (= cell_1_8 1)))
 (or $x140 (= cell_1_8 2) (= cell_1_8 3) (= cell_1_8 4) (= cell_1_8 5) (= cell_1_8 6) (= cell_1_8 7) (= cell_1_8 8) (= cell_1_8 9))))
(assert
 (let (($x1874 (= cell_2_8 2)))
 (let (($x3043 (= cell_2_8 1)))
 (or $x3043 $x1874 (= cell_2_8 3) (= cell_2_8 4) (= cell_2_8 5) (= cell_2_8 6) (= cell_2_8 7) (= cell_2_8 8) (= cell_2_8 9)))))
(assert
 (let (($x1579 (= cell_3_8 2)))
 (let (($x2931 (= cell_3_8 1)))
 (or $x2931 $x1579 (= cell_3_8 3) (= cell_3_8 4) (= cell_3_8 5) (= cell_3_8 6) (= cell_3_8 7) (= cell_3_8 8) (= cell_3_8 9)))))
(assert
 (let (($x1133 (= cell_4_8 9)))
 (let (($x2997 (= cell_4_8 8)))
 (let (($x2465 (= cell_4_8 7)))
 (let (($x2438 (= cell_4_8 6)))
 (let (($x1616 (= cell_4_8 5)))
 (let (($x1400 (= cell_4_8 4)))
 (let (($x2730 (= cell_4_8 3)))
 (let (($x1941 (= cell_4_8 2)))
 (let (($x1007 (= cell_4_8 1)))
 (or $x1007 $x1941 $x2730 $x1400 $x1616 $x2438 $x2465 $x2997 $x1133)))))))))))
(assert
 (let (($x1707 (= cell_5_8 1)))
 (or $x1707 (= cell_5_8 2) (= cell_5_8 3) (= cell_5_8 4) (= cell_5_8 5) (= cell_5_8 6) (= cell_5_8 7) (= cell_5_8 8) (= cell_5_8 9))))
(assert
 (let (($x2914 (= cell_6_8 9)))
 (let (($x4444 (= cell_6_8 8)))
 (let (($x785 (= cell_6_8 7)))
 (let (($x3381 (= cell_6_8 6)))
 (let (($x2885 (= cell_6_8 5)))
 (let (($x294 (= cell_6_8 4)))
 (let (($x3407 (= cell_6_8 3)))
 (let (($x1512 (= cell_6_8 2)))
 (let (($x3093 (= cell_6_8 1)))
 (or $x3093 $x1512 $x3407 $x294 $x2885 $x3381 $x785 $x4444 $x2914)))))))))))
(assert
 (let (($x662 (= cell_7_8 1)))
 (or $x662 (= cell_7_8 2) (= cell_7_8 3) (= cell_7_8 4) (= cell_7_8 5) (= cell_7_8 6) (= cell_7_8 7) (= cell_7_8 8) (= cell_7_8 9))))
(assert
 (let (($x2133 (= cell_8_8 1)))
 (or $x2133 (= cell_8_8 2) (= cell_8_8 3) (= cell_8_8 4) (= cell_8_8 5) (= cell_8_8 6) (= cell_8_8 7) (= cell_8_8 8) (= cell_8_8 9))))
(assert
 (let (($x2718 (= cell_9_8 1)))
 (or $x2718 (= cell_9_8 2) (= cell_9_8 3) (= cell_9_8 4) (= cell_9_8 5) (= cell_9_8 6) (= cell_9_8 7) (= cell_9_8 8) (= cell_9_8 9))))
(assert
 (let (($x3316 (= cell_1_9 2)))
 (or (= cell_1_9 1) $x3316 (= cell_1_9 3) (= cell_1_9 4) (= cell_1_9 5) (= cell_1_9 6) (= cell_1_9 7) (= cell_1_9 8) (= cell_1_9 9))))
(assert
 (let (($x1727 (= cell_2_9 9)))
 (let (($x3098 (= cell_2_9 8)))
 (let (($x100 (= cell_2_9 7)))
 (let (($x3345 (= cell_2_9 6)))
 (let (($x804 (= cell_2_9 5)))
 (let (($x2669 (= cell_2_9 4)))
 (let (($x1933 (= cell_2_9 3)))
 (let (($x2673 (= cell_2_9 2)))
 (let (($x1030 (= cell_2_9 1)))
 (or $x1030 $x2673 $x1933 $x2669 $x804 $x3345 $x100 $x3098 $x1727)))))))))))
(assert
 (let (($x2516 (= cell_3_9 9)))
 (let (($x2125 (= cell_3_9 8)))
 (let (($x2501 (= cell_3_9 7)))
 (let (($x2160 (= cell_3_9 6)))
 (let (($x731 (= cell_3_9 5)))
 (let (($x3094 (= cell_3_9 4)))
 (let (($x3284 (= cell_3_9 3)))
 (let (($x606 (= cell_3_9 2)))
 (let (($x972 (= cell_3_9 1)))
 (or $x972 $x606 $x3284 $x3094 $x731 $x2160 $x2501 $x2125 $x2516)))))))))))
(assert
 (let (($x1334 (= cell_4_9 1)))
 (or $x1334 (= cell_4_9 2) (= cell_4_9 3) (= cell_4_9 4) (= cell_4_9 5) (= cell_4_9 6) (= cell_4_9 7) (= cell_4_9 8) (= cell_4_9 9))))
(assert
 (let (($x797 (= cell_5_9 9)))
 (let (($x2550 (= cell_5_9 8)))
 (let (($x962 (= cell_5_9 7)))
 (let (($x2958 (= cell_5_9 6)))
 (let (($x1035 (= cell_5_9 5)))
 (let (($x1689 (= cell_5_9 4)))
 (let (($x1328 (= cell_5_9 3)))
 (let (($x1049 (= cell_5_9 2)))
 (let (($x1162 (= cell_5_9 1)))
 (or $x1162 $x1049 $x1328 $x1689 $x1035 $x2958 $x962 $x2550 $x797)))))))))))
(assert
 (let (($x1908 (= cell_6_9 2)))
 (let (($x3386 (= cell_6_9 1)))
 (or $x3386 $x1908 (= cell_6_9 3) (= cell_6_9 4) (= cell_6_9 5) (= cell_6_9 6) (= cell_6_9 7) (= cell_6_9 8) (= cell_6_9 9)))))
(assert
 (let (($x1911 (= cell_7_9 2)))
 (let (($x1346 (= cell_7_9 1)))
 (or $x1346 $x1911 (= cell_7_9 3) (= cell_7_9 4) (= cell_7_9 5) (= cell_7_9 6) (= cell_7_9 7) (= cell_7_9 8) (= cell_7_9 9)))))
(assert
 (let (($x3246 (= cell_8_9 2)))
 (let (($x445 (= cell_8_9 1)))
 (or $x445 $x3246 (= cell_8_9 3) (= cell_8_9 4) (= cell_8_9 5) (= cell_8_9 6) (= cell_8_9 7) (= cell_8_9 8) (= cell_8_9 9)))))
(assert
 (let (($x41 (= cell_9_9 2)))
 (let (($x851 (= cell_9_9 1)))
 (or $x851 $x41 (= cell_9_9 3) (= cell_9_9 4) (= cell_9_9 5) (= cell_9_9 6) (= cell_9_9 7) (= cell_9_9 8) (= cell_9_9 9)))))
(assert
 (and (distinct cell_1_1 cell_1_2 cell_1_3 cell_1_4 cell_1_5 cell_1_6 cell_1_7 cell_1_8 cell_1_9) true))
(assert
 (and (distinct cell_2_1 cell_2_2 cell_2_3 cell_2_4 cell_2_5 cell_2_6 cell_2_7 cell_2_8 cell_2_9) true))
(assert
 (and (distinct cell_3_1 cell_3_2 cell_3_3 cell_3_4 cell_3_5 cell_3_6 cell_3_7 cell_3_8 cell_3_9) true))
(assert
 (and (distinct cell_4_1 cell_4_2 cell_4_3 cell_4_4 cell_4_5 cell_4_6 cell_4_7 cell_4_8 cell_4_9) true))
(assert
 (and (distinct cell_5_1 cell_5_2 cell_5_3 cell_5_4 cell_5_5 cell_5_6 cell_5_7 cell_5_8 cell_5_9) true))
(assert
 (and (distinct cell_6_1 cell_6_2 cell_6_3 cell_6_4 cell_6_5 cell_6_6 cell_6_7 cell_6_8 cell_6_9) true))
(assert
 (and (distinct cell_7_1 cell_7_2 cell_7_3 cell_7_4 cell_7_5 cell_7_6 cell_7_7 cell_7_8 cell_7_9) true))
(assert
 (and (distinct cell_8_1 cell_8_2 cell_8_3 cell_8_4 cell_8_5 cell_8_6 cell_8_7 cell_8_8 cell_8_9) true))
(assert
 (and (distinct cell_9_1 cell_9_2 cell_9_3 cell_9_4 cell_9_5 cell_9_6 cell_9_7 cell_9_8 cell_9_9) true))
(assert
 (and (distinct cell_1_1 cell_2_1 cell_3_1 cell_4_1 cell_5_1 cell_6_1 cell_7_1 cell_8_1 cell_9_1) true))
(assert
 (and (distinct cell_1_2 cell_2_2 cell_3_2 cell_4_2 cell_5_2 cell_6_2 cell_7_2 cell_8_2 cell_9_2) true))
(assert
 (and (distinct cell_1_3 cell_2_3 cell_3_3 cell_4_3 cell_5_3 cell_6_3 cell_7_3 cell_8_3 cell_9_3) true))
(assert
 (and (distinct cell_1_4 cell_2_4 cell_3_4 cell_4_4 cell_5_4 cell_6_4 cell_7_4 cell_8_4 cell_9_4) true))
(assert
 (and (distinct cell_1_5 cell_2_5 cell_3_5 cell_4_5 cell_5_5 cell_6_5 cell_7_5 cell_8_5 cell_9_5) true))
(assert
 (and (distinct cell_1_6 cell_2_6 cell_3_6 cell_4_6 cell_5_6 cell_6_6 cell_7_6 cell_8_6 cell_9_6) true))
(assert
 (and (distinct cell_1_7 cell_2_7 cell_3_7 cell_4_7 cell_5_7 cell_6_7 cell_7_7 cell_8_7 cell_9_7) true))
(assert
 (and (distinct cell_1_8 cell_2_8 cell_3_8 cell_4_8 cell_5_8 cell_6_8 cell_7_8 cell_8_8 cell_9_8) true))
(assert
 (and (distinct cell_1_9 cell_2_9 cell_3_9 cell_4_9 cell_5_9 cell_6_9 cell_7_9 cell_8_9 cell_9_9) true))
(assert
 (and (distinct cell_1_1 cell_1_2 cell_1_3 cell_2_1 cell_2_2 cell_2_3 cell_3_1 cell_3_2 cell_3_3) true))
(assert
 (and (distinct cell_1_4 cell_1_5 cell_1_6 cell_2_4 cell_2_5 cell_2_6 cell_3_4 cell_3_5 cell_3_6) true))
(assert
 (and (distinct cell_1_7 cell_1_8 cell_1_9 cell_2_7 cell_2_8 cell_2_9 cell_3_7 cell_3_8 cell_3_9) true))
(assert
 (and (distinct cell_4_1 cell_4_2 cell_4_3 cell_5_1 cell_5_2 cell_5_3 cell_6_1 cell_6_2 cell_6_3) true))
(assert
 (and (distinct cell_4_4 cell_4_5 cell_4_6 cell_5_4 cell_5_5 cell_5_6 cell_6_4 cell_6_5 cell_6_6) true))
(assert
 (and (distinct cell_4_7 cell_4_8 cell_4_9 cell_5_7 cell_5_8 cell_5_9 cell_6_7 cell_6_8 cell_6_9) true))
(assert
 (and (distinct cell_7_1 cell_7_2 cell_7_3 cell_8_1 cell_8_2 cell_8_3 cell_9_1 cell_9_2 cell_9_3) true))
(assert
 (and (distinct cell_7_4 cell_7_5 cell_7_6 cell_8_4 cell_8_5 cell_8_6 cell_9_4 cell_9_5 cell_9_6) true))
(assert
 (and (distinct cell_7_7 cell_7_8 cell_7_9 cell_8_7 cell_8_8 cell_8_9 cell_9_7 cell_9_8 cell_9_9) true))
(assert
 (let (($x164 (and (distinct cell_5_9 cell_6_8 cell_7_7 cell_8_6) true)))
 (let (($x3139 (and (distinct cell_2_9 cell_3_8 cell_4_7 cell_5_6 cell_6_5 cell_7_4 cell_8_3 cell_9_2) true)))
 (let (($x604 (and (distinct cell_1_8 cell_2_7 cell_3_6 cell_4_5 cell_5_4 cell_6_3 cell_7_2 cell_8_1) true)))
 (let (($x3649 (and (distinct cell_1_5 cell_2_4 cell_3_3 cell_4_2) true)))
 (let (($x1807 (and (distinct cell_5_1 cell_6_2 cell_7_3 cell_8_4) true)))
 (let (($x815 (and (distinct cell_2_1 cell_3_2 cell_4_3 cell_5_4 cell_6_5 cell_7_6 cell_8_7 cell_9_8) true)))
 (let (($x895 (and (distinct cell_1_2 cell_2_3 cell_3_4 cell_4_5 cell_5_6 cell_6_7 cell_7_8 cell_8_9) true)))
 (let (($x2008 (and (distinct cell_1_5 cell_2_6 cell_3_7 cell_4_8) true)))
 (and $x2008 $x895 $x815 $x1807 $x3649 $x604 $x3139 $x164))))))))))
(assert
 (and (distinct cell_5_7 2) true))
(check-sat)
